benchmark/results/graph__10-1000-0.10-02_18/graph__10-1000-0.10-02_18_Quinton_Benders_sub.lp
\ This file has been generated by DOcplex
\ ENCODING=ISO-8859-1
\Problem name: Quinton Benders_dual_sub

Minimize
 obj: 0.000898472597 pi_nr_a0 + 0.001934235977 pi_nr_a1
      + 0.001831501832 pi_nr_a2 + 0.000813008130 pi_nr_a3
      + 0.000977517107 pi_nr_a4 + 0.001035196687 pi_nr_a5
      + 0.000948766603 pi_nr_a6 + 0.000875656743 pi_nr_a7
      + 0.000771604938 pi_nr_a8 + 0.001351351351 pi_nr_a9 + pi_p_a1_a0
      + pi_p_a0_a2 + pi_p_a4_a3 + pi_p_a5_a2 + pi_p_a0_a8
      + 2592 pi_d_a0_a1_proc_0 + pi_d_a1_a0_proc_0 + pi_d_a0_a2_proc_1
      + 2593 pi_d_a0_a2_proc_0 + 2592 pi_d_a2_a0_proc_0 + 2592 pi_d_a0_a3_proc_1
      + 2592 pi_d_a0_a3_proc_0 + pi_d_a3_a0_proc_1 + pi_d_a3_a0_proc_0
      + 2593 pi_d_a0_a4_proc_1 + 2593 pi_d_a0_a4_proc_0 + pi_d_a5_a0_proc_1
      + pi_d_a0_a6_proc_1 + 2593 pi_d_a0_a7_proc_0 + pi_d_a0_a8_proc_1
      + 2593 pi_d_a0_a8_proc_0 + 2592 pi_d_a8_a0_proc_0 + 2593 pi_d_a0_a9_proc_1
      + 2593 pi_d_a0_a9_proc_0 + 2594 pi_d_a1_a2_proc_0 - pi_d_a2_a1_proc_0
      + pi_d_a1_a3_proc_0 + 2 pi_d_a1_a4_proc_0 - pi_d_a4_a1_proc_0
      + 2 pi_d_a1_a7_proc_0 - pi_d_a7_a1_proc_0 + 2594 pi_d_a1_a8_proc_0
      - pi_d_a8_a1_proc_0 + 2 pi_d_a1_a9_proc_0 - pi_d_a9_a1_proc_0
      + 2591 pi_d_a2_a3_proc_1 + 2591 pi_d_a2_a3_proc_0 + 2 pi_d_a3_a2_proc_1
      + 2 pi_d_a3_a2_proc_0 + pi_d_a2_a4_proc_1 + pi_d_a2_a4_proc_0
      + 2592 pi_d_a4_a2_proc_1 + 2592 pi_d_a4_a2_proc_0 + pi_d_a5_a2_proc_1
      + pi_d_a6_a2_proc_1 + 2593 pi_d_a2_a7_proc_0 + pi_d_a2_a8_proc_1
      + 2593 pi_d_a2_a8_proc_0 + 2592 pi_d_a8_a2_proc_0 + 2592 pi_d_a2_a9_proc_1
      + 2592 pi_d_a2_a9_proc_0 + pi_d_a9_a2_proc_1 + pi_d_a9_a2_proc_0
      + 2594 pi_d_a3_a4_proc_1 + 2 pi_d_a3_a4_proc_0 + 2591 pi_d_a4_a3_proc_1
      - pi_d_a4_a3_proc_0 + 2593 pi_d_a3_a5_proc_1 + 2 pi_d_a3_a6_proc_1
      + 2591 pi_d_a6_a3_proc_1 + 2 pi_d_a3_a7_proc_0 - pi_d_a7_a3_proc_0
      + 2594 pi_d_a3_a8_proc_1 + 2594 pi_d_a3_a8_proc_0 - pi_d_a8_a3_proc_1
      - pi_d_a8_a3_proc_0 + 2594 pi_d_a3_a9_proc_1 + 2 pi_d_a3_a9_proc_0
      + 2591 pi_d_a9_a3_proc_1 - pi_d_a9_a3_proc_0 + 2591 pi_d_a4_a5_proc_1
      + 2 pi_d_a5_a4_proc_1 + 2592 pi_d_a4_a6_proc_1 + pi_d_a6_a4_proc_1
      + pi_d_a7_a4_proc_0 + 2592 pi_d_a4_a8_proc_1 + 2592 pi_d_a4_a8_proc_0
      + pi_d_a8_a4_proc_1 + pi_d_a8_a4_proc_0 + 2592 pi_d_a4_a9_proc_1
      + 2593 pi_d_a9_a4_proc_1 + pi_d_a9_a4_proc_0 + pi_d_a5_a6_proc_1
      + 2 pi_d_a5_a8_proc_1 - pi_d_a8_a5_proc_1 + 2593 pi_d_a5_a9_proc_1
      + pi_d_a6_a8_proc_1 + 2593 pi_d_a6_a9_proc_1 + 2593 pi_d_a7_a8_proc_0
      + pi_d_a9_a7_proc_0 + 2592 pi_d_a8_a9_proc_1 + 2592 pi_d_a8_a9_proc_0
      + pi_d_a9_a8_proc_1 + pi_d_a9_a8_proc_0 + pi_y2_a0_proc_1
      + pi_y2_a1_proc_0 + pi_y2_a2_proc_1 + pi_y2_a3_proc_0 + pi_y2_a4_proc_0
      + pi_y2_a5_proc_1 + pi_y2_a6_proc_1 + pi_y2_a7_proc_0 + pi_y2_a8_proc_1
      + pi_y2_a9_proc_0
Subject To
 c1: pi_nr_a0 + pi_nr_a1 + pi_nr_a2 + pi_nr_a3 + pi_nr_a4 + pi_nr_a5 + pi_nr_a6
     + pi_nr_a7 + pi_nr_a8 + pi_nr_a9 - pi_y1_a0 - pi_y1_a1 - pi_y1_a2
     - pi_y1_a3 - pi_y1_a4 - pi_y1_a5 - pi_y1_a6 - pi_y1_a7 - pi_y1_a8
     - pi_y1_a9 >= 1
 c2: - pi_p_a1_a0 + pi_p_a0_a2 + pi_p_a0_a8 - pi_p_a6_a0 + pi_d_a0_a1_proc_0
     - pi_d_a1_a0_proc_0 + pi_d_a0_a2_proc_1 + pi_d_a0_a2_proc_0
     - pi_d_a2_a0_proc_1 - pi_d_a2_a0_proc_0 + pi_d_a0_a3_proc_1
     + pi_d_a0_a3_proc_0 - pi_d_a3_a0_proc_1 - pi_d_a3_a0_proc_0
     + pi_d_a0_a4_proc_1 + pi_d_a0_a4_proc_0 - pi_d_a4_a0_proc_1
     - pi_d_a4_a0_proc_0 + pi_d_a0_a5_proc_1 - pi_d_a5_a0_proc_1
     + pi_d_a0_a6_proc_1 - pi_d_a6_a0_proc_1 + pi_d_a0_a7_proc_0
     - pi_d_a7_a0_proc_0 + pi_d_a0_a8_proc_1 + pi_d_a0_a8_proc_0
     - pi_d_a8_a0_proc_1 - pi_d_a8_a0_proc_0 + pi_d_a0_a9_proc_1
     + pi_d_a0_a9_proc_0 - pi_d_a9_a0_proc_1 - pi_d_a9_a0_proc_0 >= 0
 c3: 1270 pi_p_a0_a2 + 1270 pi_p_a0_a8 + 1270 pi_d_a0_a1_proc_0
     + 1270 pi_d_a0_a2_proc_0 + 1270 pi_d_a0_a3_proc_0 + 1270 pi_d_a0_a4_proc_0
     + 1270 pi_d_a0_a7_proc_0 + 1270 pi_d_a0_a8_proc_0 + 1270 pi_d_a0_a9_proc_0
     + pi_y1_a0 + pi_y2_a0_proc_0 >= 0
 c4: 1113 pi_p_a0_a2 + 1113 pi_p_a0_a8 + 1113 pi_d_a0_a2_proc_1
     + 1113 pi_d_a0_a3_proc_1 + 1113 pi_d_a0_a4_proc_1 + 1113 pi_d_a0_a5_proc_1
     + 1113 pi_d_a0_a6_proc_1 + 1113 pi_d_a0_a8_proc_1 + 1113 pi_d_a0_a9_proc_1
     + pi_y1_a0 + pi_y2_a0_proc_1 >= 0
 c5: pi_p_a1_a0 - pi_p_a3_a1 - pi_d_a0_a1_proc_0 + pi_d_a1_a0_proc_0
     + pi_d_a1_a2_proc_0 - pi_d_a2_a1_proc_0 + pi_d_a1_a3_proc_0
     - pi_d_a3_a1_proc_0 + pi_d_a1_a4_proc_0 - pi_d_a4_a1_proc_0
     + pi_d_a1_a7_proc_0 - pi_d_a7_a1_proc_0 + pi_d_a1_a8_proc_0
     - pi_d_a8_a1_proc_0 + pi_d_a1_a9_proc_0 - pi_d_a9_a1_proc_0 >= 0
 c6: 517 pi_p_a1_a0 + 517 pi_d_a1_a0_proc_0 + 517 pi_d_a1_a2_proc_0
     + 517 pi_d_a1_a3_proc_0 + 517 pi_d_a1_a4_proc_0 + 517 pi_d_a1_a7_proc_0
     + 517 pi_d_a1_a8_proc_0 + 517 pi_d_a1_a9_proc_0 + pi_y1_a1
     + pi_y2_a1_proc_0 >= 0
 c7: - pi_p_a0_a2 - pi_p_a5_a2 + pi_p_a2_a6 - pi_p_a9_a2 + pi_p_a2_a5
     - pi_d_a0_a2_proc_1 - pi_d_a0_a2_proc_0 + pi_d_a2_a0_proc_1
     + pi_d_a2_a0_proc_0 - pi_d_a1_a2_proc_0 + pi_d_a2_a1_proc_0
     + pi_d_a2_a3_proc_1 + pi_d_a2_a3_proc_0 - pi_d_a3_a2_proc_1
     - pi_d_a3_a2_proc_0 + pi_d_a2_a4_proc_1 + pi_d_a2_a4_proc_0
     - pi_d_a4_a2_proc_1 - pi_d_a4_a2_proc_0 + pi_d_a2_a5_proc_1
     - pi_d_a5_a2_proc_1 + pi_d_a2_a6_proc_1 - pi_d_a6_a2_proc_1
     + pi_d_a2_a7_proc_0 - pi_d_a7_a2_proc_0 + pi_d_a2_a8_proc_1
     + pi_d_a2_a8_proc_0 - pi_d_a8_a2_proc_1 - pi_d_a8_a2_proc_0
     + pi_d_a2_a9_proc_1 + pi_d_a2_a9_proc_0 - pi_d_a9_a2_proc_1
     - pi_d_a9_a2_proc_0 >= 0
 c8: 865 pi_p_a2_a6 + 865 pi_p_a2_a5 + 865 pi_d_a2_a0_proc_0
     + 865 pi_d_a2_a1_proc_0 + 865 pi_d_a2_a3_proc_0 + 865 pi_d_a2_a4_proc_0
     + 865 pi_d_a2_a7_proc_0 + 865 pi_d_a2_a8_proc_0 + 865 pi_d_a2_a9_proc_0
     + pi_y1_a2 + pi_y2_a2_proc_0 >= 0
 c9: 546 pi_p_a2_a6 + 546 pi_p_a2_a5 + 546 pi_d_a2_a0_proc_1
     + 546 pi_d_a2_a3_proc_1 + 546 pi_d_a2_a4_proc_1 + 546 pi_d_a2_a5_proc_1
     + 546 pi_d_a2_a6_proc_1 + 546 pi_d_a2_a8_proc_1 + 546 pi_d_a2_a9_proc_1
     + pi_y1_a2 + pi_y2_a2_proc_1 >= 0
 c10: pi_p_a3_a1 - pi_p_a4_a3 - pi_p_a5_a3 - pi_d_a0_a3_proc_1
      - pi_d_a0_a3_proc_0 + pi_d_a3_a0_proc_1 + pi_d_a3_a0_proc_0
      - pi_d_a1_a3_proc_0 + pi_d_a3_a1_proc_0 - pi_d_a2_a3_proc_1
      - pi_d_a2_a3_proc_0 + pi_d_a3_a2_proc_1 + pi_d_a3_a2_proc_0
      + pi_d_a3_a4_proc_1 + pi_d_a3_a4_proc_0 - pi_d_a4_a3_proc_1
      - pi_d_a4_a3_proc_0 + pi_d_a3_a5_proc_1 - pi_d_a5_a3_proc_1
      + pi_d_a3_a6_proc_1 - pi_d_a6_a3_proc_1 + pi_d_a3_a7_proc_0
      - pi_d_a7_a3_proc_0 + pi_d_a3_a8_proc_1 + pi_d_a3_a8_proc_0
      - pi_d_a8_a3_proc_1 - pi_d_a8_a3_proc_0 + pi_d_a3_a9_proc_1
      + pi_d_a3_a9_proc_0 - pi_d_a9_a3_proc_1 - pi_d_a9_a3_proc_0 >= 0
 c11: 1230 pi_p_a3_a1 + 1230 pi_d_a3_a0_proc_0 + 1230 pi_d_a3_a1_proc_0
      + 1230 pi_d_a3_a2_proc_0 + 1230 pi_d_a3_a4_proc_0 + 1230 pi_d_a3_a7_proc_0
      + 1230 pi_d_a3_a8_proc_0 + 1230 pi_d_a3_a9_proc_0 + pi_y1_a3
      + pi_y2_a3_proc_0 >= 0
 c12: 895 pi_p_a3_a1 + 895 pi_d_a3_a0_proc_1 + 895 pi_d_a3_a2_proc_1
      + 895 pi_d_a3_a4_proc_1 + 895 pi_d_a3_a5_proc_1 + 895 pi_d_a3_a6_proc_1
      + 895 pi_d_a3_a8_proc_1 + 895 pi_d_a3_a9_proc_1 + pi_y1_a3
      + pi_y2_a3_proc_1 >= 0
 c13: pi_p_a4_a3 + pi_p_a4_a7 + pi_p_a4_a5 - pi_d_a0_a4_proc_1
      - pi_d_a0_a4_proc_0 + pi_d_a4_a0_proc_1 + pi_d_a4_a0_proc_0
      - pi_d_a1_a4_proc_0 + pi_d_a4_a1_proc_0 - pi_d_a2_a4_proc_1
      - pi_d_a2_a4_proc_0 + pi_d_a4_a2_proc_1 + pi_d_a4_a2_proc_0
      - pi_d_a3_a4_proc_1 - pi_d_a3_a4_proc_0 + pi_d_a4_a3_proc_1
      + pi_d_a4_a3_proc_0 + pi_d_a4_a5_proc_1 - pi_d_a5_a4_proc_1
      + pi_d_a4_a6_proc_1 - pi_d_a6_a4_proc_1 + pi_d_a4_a7_proc_0
      - pi_d_a7_a4_proc_0 + pi_d_a4_a8_proc_1 + pi_d_a4_a8_proc_0
      - pi_d_a8_a4_proc_1 - pi_d_a8_a4_proc_0 + pi_d_a4_a9_proc_1
      + pi_d_a4_a9_proc_0 - pi_d_a9_a4_proc_1 - pi_d_a9_a4_proc_0 >= 0
 c14: 1023 pi_p_a4_a3 + 1023 pi_p_a4_a7 + 1023 pi_p_a4_a5
      + 1023 pi_d_a4_a0_proc_0 + 1023 pi_d_a4_a1_proc_0 + 1023 pi_d_a4_a2_proc_0
      + 1023 pi_d_a4_a3_proc_0 + 1023 pi_d_a4_a7_proc_0 + 1023 pi_d_a4_a8_proc_0
      + 1023 pi_d_a4_a9_proc_0 + pi_y1_a4 + pi_y2_a4_proc_0 >= 0
 c15: 1102 pi_p_a4_a3 + 1102 pi_p_a4_a7 + 1102 pi_p_a4_a5
      + 1102 pi_d_a4_a0_proc_1 + 1102 pi_d_a4_a2_proc_1 + 1102 pi_d_a4_a3_proc_1
      + 1102 pi_d_a4_a5_proc_1 + 1102 pi_d_a4_a6_proc_1 + 1102 pi_d_a4_a8_proc_1
      + 1102 pi_d_a4_a9_proc_1 + pi_y1_a4 + pi_y2_a4_proc_1 >= 0
 c16: pi_p_a5_a2 - pi_p_a7_a5 + pi_p_a5_a3 - pi_p_a4_a5 - pi_p_a2_a5
      - pi_d_a0_a5_proc_1 + pi_d_a5_a0_proc_1 - pi_d_a2_a5_proc_1
      + pi_d_a5_a2_proc_1 - pi_d_a3_a5_proc_1 + pi_d_a5_a3_proc_1
      - pi_d_a4_a5_proc_1 + pi_d_a5_a4_proc_1 + pi_d_a5_a6_proc_1
      - pi_d_a6_a5_proc_1 + pi_d_a5_a8_proc_1 - pi_d_a8_a5_proc_1
      + pi_d_a5_a9_proc_1 - pi_d_a9_a5_proc_1 >= 0
 c17: 966 pi_p_a5_a2 + 966 pi_p_a5_a3 + 966 pi_d_a5_a0_proc_1
      + 966 pi_d_a5_a2_proc_1 + 966 pi_d_a5_a3_proc_1 + 966 pi_d_a5_a4_proc_1
      + 966 pi_d_a5_a6_proc_1 + 966 pi_d_a5_a8_proc_1 + 966 pi_d_a5_a9_proc_1
      + pi_y1_a5 + pi_y2_a5_proc_1 >= 0
 c18: - pi_p_a2_a6 + pi_p_a6_a0 - pi_d_a0_a6_proc_1 + pi_d_a6_a0_proc_1
      - pi_d_a2_a6_proc_1 + pi_d_a6_a2_proc_1 - pi_d_a3_a6_proc_1
      + pi_d_a6_a3_proc_1 - pi_d_a4_a6_proc_1 + pi_d_a6_a4_proc_1
      - pi_d_a5_a6_proc_1 + pi_d_a6_a5_proc_1 + pi_d_a6_a8_proc_1
      - pi_d_a8_a6_proc_1 + pi_d_a6_a9_proc_1 - pi_d_a9_a6_proc_1 >= 0
 c19: 1054 pi_p_a6_a0 + 1054 pi_d_a6_a0_proc_1 + 1054 pi_d_a6_a2_proc_1
      + 1054 pi_d_a6_a3_proc_1 + 1054 pi_d_a6_a4_proc_1 + 1054 pi_d_a6_a5_proc_1
      + 1054 pi_d_a6_a8_proc_1 + 1054 pi_d_a6_a9_proc_1 + pi_y1_a6
      + pi_y2_a6_proc_1 >= 0
 c20: pi_p_a7_a5 - pi_p_a4_a7 - pi_d_a0_a7_proc_0 + pi_d_a7_a0_proc_0
      - pi_d_a1_a7_proc_0 + pi_d_a7_a1_proc_0 - pi_d_a2_a7_proc_0
      + pi_d_a7_a2_proc_0 - pi_d_a3_a7_proc_0 + pi_d_a7_a3_proc_0
      - pi_d_a4_a7_proc_0 + pi_d_a7_a4_proc_0 + pi_d_a7_a8_proc_0
      - pi_d_a8_a7_proc_0 + pi_d_a7_a9_proc_0 - pi_d_a9_a7_proc_0 >= 0
 c21: 1142 pi_p_a7_a5 + 1142 pi_d_a7_a0_proc_0 + 1142 pi_d_a7_a1_proc_0
      + 1142 pi_d_a7_a2_proc_0 + 1142 pi_d_a7_a3_proc_0 + 1142 pi_d_a7_a4_proc_0
      + 1142 pi_d_a7_a8_proc_0 + 1142 pi_d_a7_a9_proc_0 + pi_y1_a7
      + pi_y2_a7_proc_0 >= 0
 c22: - pi_p_a0_a8 + pi_p_a8_a9 - pi_d_a0_a8_proc_1 - pi_d_a0_a8_proc_0
      + pi_d_a8_a0_proc_1 + pi_d_a8_a0_proc_0 - pi_d_a1_a8_proc_0
      + pi_d_a8_a1_proc_0 - pi_d_a2_a8_proc_1 - pi_d_a2_a8_proc_0
      + pi_d_a8_a2_proc_1 + pi_d_a8_a2_proc_0 - pi_d_a3_a8_proc_1
      - pi_d_a3_a8_proc_0 + pi_d_a8_a3_proc_1 + pi_d_a8_a3_proc_0
      - pi_d_a4_a8_proc_1 - pi_d_a4_a8_proc_0 + pi_d_a8_a4_proc_1
      + pi_d_a8_a4_proc_0 - pi_d_a5_a8_proc_1 + pi_d_a8_a5_proc_1
      - pi_d_a6_a8_proc_1 + pi_d_a8_a6_proc_1 - pi_d_a7_a8_proc_0
      + pi_d_a8_a7_proc_0 + pi_d_a8_a9_proc_1 + pi_d_a8_a9_proc_0
      - pi_d_a9_a8_proc_1 - pi_d_a9_a8_proc_0 >= 0
 c23: 1087 pi_p_a8_a9 + 1087 pi_d_a8_a0_proc_0 + 1087 pi_d_a8_a1_proc_0
      + 1087 pi_d_a8_a2_proc_0 + 1087 pi_d_a8_a3_proc_0 + 1087 pi_d_a8_a4_proc_0
      + 1087 pi_d_a8_a7_proc_0 + 1087 pi_d_a8_a9_proc_0 + pi_y1_a8
      + pi_y2_a8_proc_0 >= 0
 c24: 1296 pi_p_a8_a9 + 1296 pi_d_a8_a0_proc_1 + 1296 pi_d_a8_a2_proc_1
      + 1296 pi_d_a8_a3_proc_1 + 1296 pi_d_a8_a4_proc_1 + 1296 pi_d_a8_a5_proc_1
      + 1296 pi_d_a8_a6_proc_1 + 1296 pi_d_a8_a9_proc_1 + pi_y1_a8
      + pi_y2_a8_proc_1 >= 0
 c25: pi_p_a9_a2 - pi_p_a8_a9 - pi_d_a0_a9_proc_1 - pi_d_a0_a9_proc_0
      + pi_d_a9_a0_proc_1 + pi_d_a9_a0_proc_0 - pi_d_a1_a9_proc_0
      + pi_d_a9_a1_proc_0 - pi_d_a2_a9_proc_1 - pi_d_a2_a9_proc_0
      + pi_d_a9_a2_proc_1 + pi_d_a9_a2_proc_0 - pi_d_a3_a9_proc_1
      - pi_d_a3_a9_proc_0 + pi_d_a9_a3_proc_1 + pi_d_a9_a3_proc_0
      - pi_d_a4_a9_proc_1 - pi_d_a4_a9_proc_0 + pi_d_a9_a4_proc_1
      + pi_d_a9_a4_proc_0 - pi_d_a5_a9_proc_1 + pi_d_a9_a5_proc_1
      - pi_d_a6_a9_proc_1 + pi_d_a9_a6_proc_1 - pi_d_a7_a9_proc_0
      + pi_d_a9_a7_proc_0 - pi_d_a8_a9_proc_1 - pi_d_a8_a9_proc_0
      + pi_d_a9_a8_proc_1 + pi_d_a9_a8_proc_0 >= 0
 c26: 740 pi_p_a9_a2 + 740 pi_d_a9_a0_proc_0 + 740 pi_d_a9_a1_proc_0
      + 740 pi_d_a9_a2_proc_0 + 740 pi_d_a9_a3_proc_0 + 740 pi_d_a9_a4_proc_0
      + 740 pi_d_a9_a7_proc_0 + 740 pi_d_a9_a8_proc_0 + pi_y1_a9
      + pi_y2_a9_proc_0 >= 0
 c27: 862 pi_p_a9_a2 + 862 pi_d_a9_a0_proc_1 + 862 pi_d_a9_a2_proc_1
      + 862 pi_d_a9_a3_proc_1 + 862 pi_d_a9_a4_proc_1 + 862 pi_d_a9_a5_proc_1
      + 862 pi_d_a9_a6_proc_1 + 862 pi_d_a9_a8_proc_1 + pi_y1_a9
      + pi_y2_a9_proc_1 >= 0

Bounds
       pi_y1_a0 Free
       pi_y1_a1 Free
       pi_y1_a2 Free
       pi_y1_a3 Free
       pi_y1_a4 Free
       pi_y1_a5 Free
       pi_y1_a6 Free
       pi_y1_a7 Free
       pi_y1_a8 Free
       pi_y1_a9 Free
End
