benchmark/results/graph__10-1000-0.10-02_18/graph__10-1000-0.10-02_18_Quinton_Benders_sub.txt
solution for: Quinton Benders_dual_sub
objective: 0.000195236
status: OPTIMAL_SOLUTION(2)
pi_p_a3_a1=0.000
pi_p_a5_a3=0.000
pi_d_a1_a0_proc_0=0.000
pi_d_a0_a8_proc_1=0.000
pi_d_a8_a5_proc_1=0.000
pi_y1_a0=-0.217
pi_y1_a1=-0.101
pi_y1_a3=-0.240
pi_y1_a5=-0.189
pi_y1_a8=-0.253
pi_y2_a0_proc_0=0.217
pi_y2_a3_proc_1=0.065
pi_y2_a8_proc_0=0.253
